Geographic Exponential Decay
20 34 160 91 137 27 89 298 258 59 222 68 103 275 283 141 21 195 273 225 239
p edge 320 1288
e 0 212 4.0
e 0 59 77.0
e 0 130 11.0
e 0 250 8.0
e 0 9 9.0
e 1 219 1.0
e 1 131 1.0
e 2 310 3.0
e 2 81 2.0
e 3 64 3.0
e 3 252 3.0
e 4 158 5.0
e 4 15 3.0
e 4 261 24.0
e 5 206 37.0
e 5 167 17.0
e 5 237 15.0
e 5 283 83.0
e 5 107 5.0
e 5 134 20.0
e 5 189 18.0
e 5 191 1.0
e 5 149 5.0
e 5 239 11.0
e 6 130 3.0
e 6 169 5.0
e 6 246 4.0
e 7 310 11.0
e 7 274 1.0
e 8 123 2.0
e 8 208 2.0
e 9 172 1.0
e 10 134 8.0
e 10 120 1.0
e 10 184 1.0
e 10 176 6.0
e 10 155 11.0
e 11 64 1.0
e 11 283 33.0
e 12 5 21.0
e 12 226 6.0
e 13 318 3.0
e 13 8 1.0
e 13 61 21.0
e 14 153 3.0
e 14 193 1.0
e 15 262 1.0
e 16 176 6.0
e 16 98 23.0
e 16 255 7.0
e 16 130 4.0
e 16 209 11.0
e 17 211 19.0
e 17 176 2.0
e 17 94 5.0
e 18 181 4.0
e 18 168 5.0
e 18 55 3.0
e 19 247 6.0
e 19 6 1.0
e 19 92 40.0
e 19 137 1.0
e 19 20 13.0
e 19 228 7.0
e 19 26 8.0
e 19 57 20.0
e 19 142 22.0
e 19 52 49.0
e 19 151 35.0
e 19 172 40.0
e 19 267 2.0
e 19 197 33.0
e 19 104 49.0
e 19 32 14.0
e 19 95 46.0
e 19 300 18.0
e 19 15 22.0
e 20 14 6.0
e 20 315 9.0
e 20 160 55.0
e 20 263 4.0
e 21 30 30.0
e 21 164 18.0
e 21 86 6.0
e 21 312 5.0
e 21 316 96.0
e 21 82 87.0
e 21 130 60.0
e 21 228 98.0
e 21 165 46.0
e 21 166 18.0
e 21 155 31.0
e 21 198 47.0
e 21 151 71.0
e 21 3 73.0
e 21 109 58.0
e 21 23 3.0
e 21 124 71.0
e 21 248 76.0
e 21 139 79.0
e 21 52 1.0
e 21 1 80.0
e 21 120 27.0
e 21 213 96.0
e 21 159 6.0
e 21 73 96.0
e 21 176 47.0
e 21 12 74.0
e 21 192 45.0
e 21 202 43.0
e 21 177 53.0
e 21 53 95.0
e 21 113 24.0
e 21 318 92.0
e 21 191 67.0
e 21 54 94.0
e 21 118 78.0
e 21 153 38.0
e 22 134 4.0
e 22 62 5.0
e 22 129 1.0
e 22 198 4.0
e 22 156 5.0
e 23 113 1.0
e 24 147 5.0
e 24 137 33.0
e 24 213 16.0
e 25 310 3.0
e 25 119 2.0
e 26 65 4.0
e 27 169 69.0
e 27 56 92.0
e 27 77 43.0
e 27 155 74.0
e 27 108 63.0
e 27 263 64.0
e 27 129 63.0
e 27 223 10.0
e 27 58 85.0
e 27 259 90.0
e 27 248 87.0
e 27 51 45.0
e 27 104 71.0
e 27 306 42.0
e 27 273 25.0
e 27 215 82.0
e 27 279 81.0
e 27 274 70.0
e 27 94 70.0
e 27 287 66.0
e 27 298 91.0
e 27 178 82.0
e 27 234 89.0
e 27 243 82.0
e 27 190 89.0
e 27 280 81.0
e 27 119 43.0
e 27 71 46.0
e 27 26 68.0
e 27 222 53.0
e 27 109 83.0
e 27 220 6.0
e 27 141 41.0
e 27 255 86.0
e 27 187 95.0
e 27 235 42.0
e 27 152 10.0
e 28 108 4.0
e 28 29 1.0
e 29 222 60.0
e 30 98 4.0
e 30 88 1.0
e 31 17 4.0
e 31 223 5.0
e 31 305 1.0
e 32 116 3.0
e 32 40 7.0
e 32 28 11.0
e 32 299 9.0
e 33 67 4.0
e 33 265 5.0
e 33 277 1.0
e 34 141 76.0
e 34 105 56.0
e 34 188 38.0
e 34 118 73.0
e 34 259 37.0
e 34 309 93.0
e 34 161 18.0
e 34 264 90.0
e 34 128 91.0
e 34 189 41.0
e 34 137 76.0
e 34 72 65.0
e 34 159 52.0
e 34 171 79.0
e 34 52 80.0
e 34 317 77.0
e 34 201 91.0
e 34 230 81.0
e 34 148 22.0
e 34 116 11.0
e 34 156 47.0
e 34 135 25.0
e 34 248 40.0
e 34 269 31.0
e 34 225 72.0
e 34 290 5.0
e 34 191 41.0
e 34 160 33.0
e 34 270 46.0
e 34 273 84.0
e 34 45 45.0
e 34 126 43.0
e 34 104 42.0
e 34 37 15.0
e 34 173 54.0
e 34 219 62.0
e 34 190 43.0
e 35 287 3.0
e 35 285 6.0
e 36 236 2.0
e 36 223 5.0
e 36 12 1.0
e 37 236 1.0
e 38 251 5.0
e 38 238 1.0
e 39 93 12.0
e 39 218 1.0
e 39 269 2.0
e 39 120 9.0
e 39 204 4.0
e 40 22 2.0
e 40 257 2.0
e 41 134 2.0
e 41 125 3.0
e 42 60 9.0
e 42 58 12.0
e 42 80 4.0
e 43 296 1.0
e 43 186 1.0
e 43 206 42.0
e 44 172 22.0
e 44 6 17.0
e 44 309 19.0
e 44 227 22.0
e 44 215 17.0
e 44 8 19.0
e 44 12 16.0
e 44 80 9.0
e 44 244 7.0
e 44 123 4.0
e 45 276 1.0
e 46 217 7.0
e 46 241 10.0
e 47 318 1.0
e 47 155 1.0
e 47 64 3.0
e 48 164 1.0
e 48 44 22.0
e 48 287 1.0
e 49 147 10.0
e 49 207 8.0
e 49 308 4.0
e 49 230 4.0
e 49 63 7.0
e 50 4 1.0
e 50 98 18.0
e 51 229 3.0
e 53 223 2.0
e 54 26 2.0
e 55 57 3.0
e 56 108 5.0
e 58 159 10.0
e 58 96 1.0
e 58 21 53.0
e 59 208 66.0
e 59 20 40.0
e 59 170 21.0
e 59 260 77.0
e 59 44 1.0
e 59 250 12.0
e 59 262 97.0
e 59 303 74.0
e 59 57 91.0
e 59 130 48.0
e 59 131 80.0
e 59 52 78.0
e 59 107 10.0
e 59 63 14.0
e 59 126 49.0
e 59 47 10.0
e 59 103 94.0
e 59 124 7.0
e 59 150 32.0
e 59 35 79.0
e 59 192 18.0
e 59 272 36.0
e 59 161 26.0
e 59 94 52.0
e 59 311 37.0
e 59 43 57.0
e 59 4 77.0
e 59 84 38.0
e 59 154 94.0
e 59 143 65.0
e 59 236 18.0
e 59 139 8.0
e 59 158 46.0
e 59 81 32.0
e 59 241 52.0
e 59 273 73.0
e 60 79 9.0
e 60 178 2.0
e 60 231 5.0
e 60 239 74.0
e 61 264 13.0
e 61 253 10.0
e 61 155 10.0
e 61 21 76.0
e 61 292 24.0
e 61 156 13.0
e 61 195 22.0
e 61 142 17.0
e 61 268 1.0
e 62 6 5.0
e 65 217 11.0
e 65 39 7.0
e 65 80 2.0
e 65 236 5.0
e 66 82 1.0
e 66 168 2.0
e 67 99 7.0
e 67 168 8.0
e 67 198 8.0
e 67 75 33.0
e 68 13 28.0
e 68 117 26.0
e 68 85 25.0
e 68 205 54.0
e 68 107 40.0
e 68 174 80.0
e 68 279 67.0
e 68 162 54.0
e 68 109 53.0
e 68 145 68.0
e 68 234 62.0
e 68 86 13.0
e 68 218 3.0
e 68 193 34.0
e 68 110 38.0
e 68 3 16.0
e 68 178 71.0
e 68 295 66.0
e 68 251 98.0
e 68 219 87.0
e 68 59 26.0
e 68 206 85.0
e 68 140 92.0
e 68 243 63.0
e 68 312 33.0
e 68 285 28.0
e 68 77 52.0
e 68 244 60.0
e 68 46 44.0
e 68 129 8.0
e 68 241 21.0
e 68 1 12.0
e 68 133 36.0
e 68 20 66.0
e 68 126 57.0
e 68 99 59.0
e 68 246 37.0
e 69 302 45.0
e 69 284 1.0
e 70 318 1.0
e 70 56 2.0
e 71 305 8.0
e 72 256 1.0
e 73 55 1.0
e 74 18 3.0
e 74 187 1.0
e 75 225 19.0
e 75 220 32.0
e 75 86 24.0
e 75 240 41.0
e 75 156 4.0
e 75 235 39.0
e 75 186 32.0
e 75 164 24.0
e 75 227 37.0
e 75 315 14.0
e 75 272 21.0
e 75 103 52.0
e 75 85 13.0
e 75 190 21.0
e 75 35 16.0
e 75 170 45.0
e 75 316 34.0
e 75 193 24.0
e 76 5 23.0
e 76 102 11.0
e 76 161 4.0
e 76 202 11.0
e 76 296 3.0
e 77 180 4.0
e 77 125 10.0
e 77 113 11.0
e 78 0 4.0
e 78 9 1.0
e 78 301 3.0
e 79 18 1.0
e 79 41 1.0
e 81 92 8.0
e 81 97 28.0
e 81 298 58.0
e 81 161 15.0
e 81 281 5.0
e 81 242 40.0
e 81 124 2.0
e 81 75 19.0
e 81 271 28.0
e 81 178 21.0
e 81 40 4.0
e 81 251 5.0
e 81 54 15.0
e 81 158 30.0
e 81 51 30.0
e 81 109 50.0
e 81 192 48.0
e 83 160 60.0
e 83 288 1.0
e 84 152 1.0
e 84 210 1.0
e 87 38 3.0
e 87 159 1.0
e 87 184 5.0
e 88 309 8.0
e 88 96 8.0
e 88 66 24.0
e 88 313 21.0
e 88 215 12.0
e 88 55 18.0
e 88 310 1.0
e 88 209 5.0
e 88 39 15.0
e 89 303 82.0
e 89 54 43.0
e 89 186 63.0
e 89 182 19.0
e 89 270 92.0
e 89 3 9.0
e 89 12 95.0
e 89 42 8.0
e 89 120 31.0
e 89 246 25.0
e 89 57 45.0
e 89 198 57.0
e 89 238 42.0
e 89 87 96.0
e 89 82 4.0
e 89 45 18.0
e 89 168 1.0
e 89 278 12.0
e 89 169 19.0
e 89 104 78.0
e 89 108 27.0
e 89 130 70.0
e 89 242 12.0
e 89 93 52.0
e 89 293 55.0
e 89 196 43.0
e 89 15 73.0
e 89 21 85.0
e 89 146 72.0
e 89 280 18.0
e 89 271 46.0
e 89 170 85.0
e 89 117 78.0
e 89 199 91.0
e 89 66 63.0
e 89 284 51.0
e 89 68 59.0
e 90 282 10.0
e 90 25 1.0
e 91 215 50.0
e 91 195 47.0
e 91 313 77.0
e 91 316 17.0
e 91 49 1.0
e 91 234 96.0
e 91 2 96.0
e 91 251 92.0
e 91 229 26.0
e 91 86 19.0
e 91 301 65.0
e 91 45 92.0
e 91 122 98.0
e 91 21 94.0
e 91 123 31.0
e 91 37 45.0
e 91 222 38.0
e 91 87 27.0
e 91 134 66.0
e 91 150 79.0
e 91 191 60.0
e 91 178 62.0
e 91 168 5.0
e 91 64 55.0
e 91 243 11.0
e 91 34 5.0
e 91 196 20.0
e 91 187 80.0
e 91 266 47.0
e 91 224 59.0
e 91 244 74.0
e 91 25 25.0
e 91 175 67.0
e 91 41 5.0
e 91 197 91.0
e 91 236 61.0
e 91 257 19.0
e 95 133 1.0
e 95 102 3.0
e 95 150 5.0
e 95 116 6.0
e 97 10 4.0
e 97 86 1.0
e 98 205 5.0
e 98 309 9.0
e 98 138 13.0
e 98 105 23.0
e 98 233 5.0
e 98 179 8.0
e 98 139 11.0
e 99 213 14.0
e 100 285 1.0
e 100 83 1.0
e 100 271 9.0
e 100 90 1.0
e 100 42 10.0
e 101 312 2.0
e 101 280 2.0
e 103 76 62.0
e 103 246 74.0
e 103 190 99.0
e 103 125 20.0
e 103 172 42.0
e 103 292 52.0
e 103 32 5.0
e 103 217 29.0
e 103 293 29.0
e 103 74 55.0
e 103 263 60.0
e 103 209 39.0
e 103 275 8.0
e 103 191 60.0
e 103 302 62.0
e 103 146 64.0
e 103 231 100.0
e 103 36 28.0
e 103 7 99.0
e 103 212 34.0
e 103 226 42.0
e 103 312 58.0
e 103 229 32.0
e 103 255 45.0
e 103 277 6.0
e 103 14 26.0
e 103 294 81.0
e 103 126 12.0
e 103 223 38.0
e 103 313 46.0
e 103 131 98.0
e 103 101 9.0
e 103 160 53.0
e 103 48 75.0
e 103 47 95.0
e 106 179 1.0
e 106 115 2.0
e 110 40 1.0
e 111 234 5.0
e 111 227 3.0
e 112 85 2.0
e 112 174 1.0
e 114 204 5.0
e 114 89 84.0
e 115 41 3.0
e 115 91 54.0
e 121 138 6.0
e 121 21 99.0
e 122 53 2.0
e 127 10 4.0
e 127 65 12.0
e 128 41 1.0
e 128 12 5.0
e 132 180 2.0
e 132 14 1.0
e 133 101 1.0
e 135 308 1.0
e 136 98 25.0
e 136 71 10.0
e 136 0 4.0
e 136 114 3.0
e 136 22 11.0
e 137 158 33.0
e 137 169 45.0
e 137 49 10.0
e 137 163 16.0
e 137 203 39.0
e 137 112 55.0
e 137 301 94.0
e 137 32 67.0
e 137 119 42.0
e 137 294 7.0
e 137 268 63.0
e 137 139 59.0
e 137 278 73.0
e 137 140 46.0
e 137 36 88.0
e 137 190 56.0
e 137 244 79.0
e 137 152 64.0
e 137 241 1.0
e 137 4 98.0
e 137 284 61.0
e 137 286 16.0
e 137 99 19.0
e 137 90 91.0
e 137 256 98.0
e 137 138 11.0
e 137 274 47.0
e 137 291 18.0
e 137 243 60.0
e 137 60 31.0
e 137 50 47.0
e 137 55 16.0
e 137 317 58.0
e 137 14 3.0
e 141 293 16.0
e 141 107 54.0
e 141 248 66.0
e 141 279 68.0
e 141 98 66.0
e 141 207 16.0
e 141 289 54.0
e 141 269 14.0
e 141 26 1.0
e 141 203 72.0
e 141 134 21.0
e 141 39 4.0
e 141 208 43.0
e 141 277 63.0
e 141 105 42.0
e 141 88 26.0
e 141 270 11.0
e 141 305 99.0
e 141 233 47.0
e 141 15 43.0
e 141 93 74.0
e 141 79 96.0
e 141 103 100.0
e 141 164 2.0
e 141 294 93.0
e 141 209 69.0
e 141 65 77.0
e 141 38 100.0
e 141 271 30.0
e 141 13 40.0
e 141 51 88.0
e 141 56 8.0
e 141 291 86.0
e 141 182 68.0
e 141 227 1.0
e 142 219 3.0
e 143 1 1.0
e 144 76 2.0
e 144 257 11.0
e 144 164 11.0
e 144 245 10.0
e 144 195 47.0
e 145 148 10.0
e 145 170 10.0
e 145 311 18.0
e 145 42 2.0
e 146 95 16.0
e 146 97 16.0
e 146 101 15.0
e 146 231 18.0
e 146 94 6.0
e 146 71 6.0
e 146 127 8.0
e 146 53 16.0
e 147 33 11.0
e 147 34 27.0
e 147 131 2.0
e 148 79 2.0
e 148 318 1.0
e 148 258 4.0
e 149 211 10.0
e 149 304 1.0
e 153 59 2.0
e 153 160 29.0
e 153 94 9.0
e 154 115 5.0
e 154 62 4.0
e 157 229 1.0
e 157 48 1.0
e 160 289 65.0
e 160 171 75.0
e 160 259 11.0
e 160 179 85.0
e 160 60 96.0
e 160 299 56.0
e 160 209 79.0
e 160 65 84.0
e 160 24 77.0
e 160 300 11.0
e 160 169 73.0
e 160 255 84.0
e 160 73 36.0
e 160 78 4.0
e 160 186 23.0
e 160 22 45.0
e 160 37 81.0
e 160 284 13.0
e 160 92 31.0
e 160 306 28.0
e 160 187 9.0
e 160 233 38.0
e 160 201 30.0
e 160 177 97.0
e 160 26 89.0
e 160 235 100.0
e 160 248 18.0
e 160 265 56.0
e 160 280 27.0
e 160 297 84.0
e 160 69 87.0
e 160 84 34.0
e 162 288 5.0
e 162 255 11.0
e 162 77 8.0
e 162 260 9.0
e 163 93 2.0
e 165 87 1.0
e 165 20 8.0
e 166 39 2.0
e 166 27 30.0
e 167 168 2.0
e 169 313 22.0
e 169 196 22.0
e 169 202 20.0
e 169 92 6.0
e 169 1 5.0
e 170 253 6.0
e 173 235 19.0
e 173 291 11.0
e 175 267 5.0
e 175 52 1.0
e 175 178 3.0
e 175 9 1.0
e 177 121 4.0
e 180 278 6.0
e 180 258 67.0
e 180 125 9.0
e 181 285 6.0
e 181 133 1.0
e 181 258 95.0
e 181 278 11.0
e 183 145 1.0
e 183 184 1.0
e 185 300 13.0
e 185 152 1.0
e 185 112 10.0
e 185 53 21.0
e 185 285 3.0
e 185 81 32.0
e 185 164 5.0
e 185 169 12.0
e 185 257 24.0
e 185 27 71.0
e 188 221 2.0
e 189 4 1.0
e 194 234 4.0
e 194 205 1.0
e 194 109 4.0
e 194 186 9.0
e 194 156 3.0
e 195 117 42.0
e 195 73 92.0
e 195 202 35.0
e 195 38 62.0
e 195 154 100.0
e 195 116 26.0
e 195 88 64.0
e 195 66 28.0
e 195 160 86.0
e 195 105 98.0
e 195 244 87.0
e 195 197 72.0
e 195 120 22.0
e 195 64 64.0
e 195 258 39.0
e 195 186 34.0
e 195 161 10.0
e 195 97 19.0
e 195 249 90.0
e 195 44 33.0
e 195 39 40.0
e 195 155 12.0
e 195 172 53.0
e 195 50 94.0
e 195 162 73.0
e 195 99 69.0
e 195 40 94.0
e 195 22 2.0
e 195 93 94.0
e 195 294 62.0
e 195 30 56.0
e 195 233 35.0
e 195 129 4.0
e 195 223 56.0
e 196 172 2.0
e 196 211 1.0
e 199 246 2.0
e 200 12 2.0
e 200 251 2.0
e 203 154 3.0
e 203 318 9.0
e 203 309 3.0
e 204 130 2.0
e 206 241 11.0
e 206 310 46.0
e 206 281 49.0
e 206 144 8.0
e 206 55 46.0
e 206 235 3.0
e 206 233 13.0
e 206 216 45.0
e 206 288 49.0
e 206 149 20.0
e 206 58 25.0
e 206 254 34.0
e 206 276 45.0
e 206 257 33.0
e 206 109 19.0
e 206 255 2.0
e 207 64 1.0
e 207 138 9.0
e 207 46 2.0
e 210 177 4.0
e 211 177 24.0
e 211 13 6.0
e 211 167 1.0
e 211 61 17.0
e 211 277 16.0
e 211 33 11.0
e 211 201 2.0
e 213 15 6.0
e 213 85 19.0
e 213 179 13.0
e 213 14 8.0
e 213 279 21.0
e 213 109 2.0
e 213 199 10.0
e 214 161 5.0
e 214 36 2.0
e 216 80 5.0
e 217 122 3.0
e 217 127 9.0
e 218 221 1.0
e 222 78 49.0
e 222 142 69.0
e 222 252 50.0
e 222 200 53.0
e 222 233 63.0
e 222 239 82.0
e 222 266 27.0
e 222 75 68.0
e 222 22 1.0
e 222 108 72.0
e 222 297 19.0
e 222 219 39.0
e 222 110 92.0
e 222 73 74.0
e 222 6 36.0
e 222 156 60.0
e 222 295 80.0
e 222 296 10.0
e 222 3 27.0
e 222 134 70.0
e 222 44 27.0
e 222 47 48.0
e 222 46 33.0
e 222 66 43.0
e 222 257 71.0
e 222 102 64.0
e 222 7 97.0
e 222 143 85.0
e 222 281 41.0
e 222 158 48.0
e 222 48 10.0
e 222 278 22.0
e 222 4 95.0
e 222 5 52.0
e 224 64 4.0
e 225 261 17.0
e 225 152 93.0
e 225 192 86.0
e 225 310 79.0
e 225 55 58.0
e 225 176 60.0
e 225 143 8.0
e 225 307 12.0
e 225 16 64.0
e 225 63 3.0
e 225 177 50.0
e 225 137 88.0
e 225 139 89.0
e 225 178 35.0
e 225 290 8.0
e 225 69 52.0
e 225 84 28.0
e 225 239 100.0
e 225 153 97.0
e 225 15 18.0
e 225 190 9.0
e 225 202 22.0
e 225 44 94.0
e 225 2 48.0
e 225 247 22.0
e 225 248 69.0
e 225 208 54.0
e 225 111 39.0
e 225 169 28.0
e 225 293 38.0
e 225 53 11.0
e 225 216 15.0
e 225 186 87.0
e 225 311 31.0
e 225 83 9.0
e 226 132 11.0
e 226 253 3.0
e 226 115 3.0
e 228 62 4.0
e 228 45 8.0
e 228 27 4.0
e 229 209 10.0
e 231 14 11.0
e 231 166 11.0
e 232 43 5.0
e 232 13 1.0
e 233 161 41.0
e 233 174 48.0
e 233 122 28.0
e 233 252 23.0
e 233 65 28.0
e 233 64 21.0
e 233 228 9.0
e 233 234 39.0
e 233 196 11.0
e 233 271 4.0
e 233 294 1.0
e 233 307 13.0
e 233 15 33.0
e 235 198 1.0
e 235 13 21.0
e 235 155 2.0
e 235 83 17.0
e 235 301 9.0
e 237 179 1.0
e 239 218 62.0
e 239 65 28.0
e 239 77 42.0
e 239 185 78.0
e 239 167 78.0
e 239 133 93.0
e 239 242 64.0
e 239 80 62.0
e 239 115 23.0
e 239 89 21.0
e 239 125 43.0
e 239 277 82.0
e 239 247 17.0
e 239 273 23.0
e 239 309 91.0
e 239 118 6.0
e 239 62 63.0
e 239 144 60.0
e 239 29 14.0
e 239 169 93.0
e 239 212 94.0
e 239 92 75.0
e 239 292 36.0
e 239 265 26.0
e 239 313 88.0
e 239 19 93.0
e 239 116 100.0
e 239 299 91.0
e 239 143 15.0
e 239 96 59.0
e 239 190 10.0
e 239 208 96.0
e 239 279 80.0
e 240 33 1.0
e 240 216 5.0
e 241 177 4.0
e 241 287 15.0
e 241 252 10.0
e 241 309 2.0
e 241 50 24.0
e 243 104 5.0
e 245 314 2.0
e 249 219 4.0
e 249 220 2.0
e 253 32 12.0
e 253 177 2.0
e 254 147 6.0
e 254 231 7.0
e 258 202 71.0
e 258 317 20.0
e 258 77 86.0
e 258 142 66.0
e 258 113 44.0
e 258 169 98.0
e 258 173 71.0
e 258 216 48.0
e 258 187 91.0
e 258 203 26.0
e 258 182 24.0
e 258 151 43.0
e 258 122 80.0
e 258 308 7.0
e 258 84 62.0
e 258 170 99.0
e 258 212 70.0
e 258 198 95.0
e 258 112 59.0
e 258 247 55.0
e 258 59 89.0
e 258 167 97.0
e 258 183 94.0
e 258 50 27.0
e 258 25 95.0
e 258 279 41.0
e 258 8 93.0
e 258 10 40.0
e 258 114 88.0
e 258 243 69.0
e 258 204 22.0
e 258 67 50.0
e 258 251 5.0
e 261 140 11.0
e 261 243 24.0
e 261 188 25.0
e 261 26 1.0
e 261 76 16.0
e 261 108 9.0
e 261 227 9.0
e 261 303 9.0
e 264 253 5.0
e 267 157 1.0
e 267 39 16.0
e 267 131 15.0
e 267 304 22.0
e 267 21 68.0
e 267 212 1.0
e 267 167 5.0
e 267 177 9.0
e 268 236 1.0
e 268 74 2.0
e 268 225 60.0
e 271 154 19.0
e 271 264 18.0
e 271 82 4.0
e 271 59 40.0
e 271 109 15.0
e 273 31 89.0
e 273 83 59.0
e 273 178 87.0
e 273 272 15.0
e 273 93 16.0
e 273 221 34.0
e 273 98 41.0
e 273 30 30.0
e 273 174 92.0
e 273 258 98.0
e 273 206 58.0
e 273 248 62.0
e 273 219 72.0
e 273 9 11.0
e 273 36 43.0
e 273 282 43.0
e 273 67 17.0
e 273 274 79.0
e 273 166 90.0
e 273 121 93.0
e 273 50 98.0
e 273 131 8.0
e 273 305 64.0
e 273 250 7.0
e 273 137 29.0
e 273 212 23.0
e 273 8 66.0
e 273 44 55.0
e 273 172 61.0
e 273 262 18.0
e 273 94 14.0
e 273 135 73.0
e 273 125 64.0
e 275 44 51.0
e 275 194 18.0
e 275 138 100.0
e 275 196 67.0
e 275 274 81.0
e 275 290 43.0
e 275 160 72.0
e 275 210 54.0
e 275 25 62.0
e 275 121 40.0
e 275 151 72.0
e 275 148 29.0
e 275 114 40.0
e 275 171 54.0
e 275 22 7.0
e 275 230 27.0
e 275 232 96.0
e 275 294 23.0
e 275 267 26.0
e 275 292 60.0
e 275 265 97.0
e 275 94 25.0
e 275 77 34.0
e 275 174 53.0
e 275 249 19.0
e 275 192 10.0
e 275 105 76.0
e 275 257 86.0
e 275 88 62.0
e 275 35 60.0
e 275 66 37.0
e 275 78 17.0
e 275 201 36.0
e 275 39 24.0
e 275 56 15.0
e 275 198 40.0
e 281 126 7.0
e 281 28 16.0
e 281 308 23.0
e 281 228 25.0
e 281 208 12.0
e 281 38 13.0
e 281 121 21.0
e 282 20 29.0
e 282 25 15.0
e 282 83 26.0
e 282 47 40.0
e 282 197 41.0
e 282 281 3.0
e 282 219 3.0
e 282 170 49.0
e 282 74 17.0
e 282 212 10.0
e 282 98 7.0
e 282 24 5.0
e 282 33 8.0
e 282 124 28.0
e 282 215 16.0
e 282 274 23.0
e 282 153 25.0
e 283 73 96.0
e 283 16 65.0
e 283 72 37.0
e 283 153 60.0
e 283 192 59.0
e 283 51 8.0
e 283 19 17.0
e 283 190 56.0
e 283 31 1.0
e 283 315 79.0
e 283 137 44.0
e 283 255 4.0
e 283 313 5.0
e 283 85 83.0
e 283 276 69.0
e 283 189 3.0
e 283 209 2.0
e 283 160 49.0
e 283 90 90.0
e 283 300 95.0
e 283 178 75.0
e 283 253 27.0
e 283 15 5.0
e 283 130 38.0
e 283 233 16.0
e 283 98 2.0
e 283 138 41.0
e 283 125 59.0
e 283 195 55.0
e 283 161 60.0
e 283 278 40.0
e 283 163 100.0
e 283 202 62.0
e 283 242 85.0
e 283 314 89.0
e 285 20 16.0
e 285 65 4.0
e 285 69 24.0
e 285 142 13.0
e 285 130 22.0
e 286 21 10.0
e 289 300 4.0
e 291 109 10.0
e 291 8 10.0
e 292 1 5.0
e 295 154 1.0
e 295 69 1.0
e 295 108 12.0
e 298 290 58.0
e 298 165 4.0
e 298 33 30.0
e 298 311 51.0
e 298 263 54.0
e 298 25 54.0
e 298 59 31.0
e 298 268 71.0
e 298 2 94.0
e 298 122 24.0
e 298 42 87.0
e 298 225 65.0
e 298 0 36.0
e 298 264 40.0
e 298 245 84.0
e 298 130 67.0
e 298 13 50.0
e 298 287 12.0
e 298 239 99.0
e 298 105 72.0
e 298 48 11.0
e 298 240 57.0
e 298 160 42.0
e 298 166 63.0
e 298 158 74.0
e 298 256 15.0
e 298 73 30.0
e 298 90 34.0
e 298 69 99.0
e 298 284 95.0
e 298 3 64.0
e 298 154 23.0
e 298 134 57.0
e 298 285 57.0
e 298 117 100.0
e 299 270 5.0
e 299 202 1.0
e 302 88 35.0
e 302 246 30.0
e 302 99 1.0
e 302 198 7.0
e 302 34 53.0
e 302 310 26.0
e 302 24 47.0
e 302 18 32.0
e 302 107 44.0
e 302 63 1.0
e 302 68 98.0
e 302 159 23.0
e 302 196 43.0
e 302 164 20.0
e 302 189 50.0
e 302 90 12.0
e 302 121 39.0
e 303 269 2.0
e 303 165 6.0
e 305 185 12.0
e 306 179 4.0
e 307 176 7.0
e 307 224 1.0
e 307 250 7.0
e 311 153 10.0
e 311 49 10.0
e 311 112 23.0
e 311 125 7.0
e 311 253 13.0
e 311 198 1.0
e 319 249 4.0
e 319 316 2.0
